c Reduced graph for GEOM80 generated by Cyril Grelier
p edge 80 349
e 1 2
e 1 3
e 1 4
e 1 5
e 1 7
e 1 9
e 1 10
e 1 13
e 1 15
e 1 18
e 1 21
e 1 38
e 1 65
e 1 70
e 2 3
e 2 4
e 2 13
e 2 15
e 2 20
e 2 21
e 2 22
e 2 28
e 2 31
e 2 32
e 2 40
e 2 42
e 2 45
e 3 4
e 3 13
e 3 15
e 3 20
e 3 21
e 3 22
e 3 24
e 3 28
e 3 32
e 3 40
e 3 42
e 3 45
e 4 5
e 4 7
e 4 10
e 4 13
e 4 15
e 4 18
e 4 21
e 4 24
e 4 36
e 4 47
e 4 60
e 5 6
e 5 7
e 5 8
e 5 9
e 5 10
e 5 15
e 5 18
e 5 37
e 5 38
e 5 65
e 5 70
e 6 7
e 6 8
e 6 9
e 6 10
e 6 16
e 6 18
e 6 23
e 6 26
e 6 27
e 6 37
e 6 38
e 6 65
e 7 8
e 7 9
e 7 10
e 7 15
e 7 18
e 7 36
e 7 37
e 7 38
e 7 60
e 8 9
e 8 10
e 8 12
e 8 16
e 8 17
e 8 18
e 8 23
e 8 26
e 8 37
e 8 72
e 9 10
e 9 16
e 9 18
e 9 27
e 9 37
e 9 38
e 9 65
e 10 16
e 10 18
e 10 36
e 10 37
e 10 60
e 11 30
e 11 39
e 11 46
e 11 50
e 11 51
e 11 55
e 11 56
e 11 58
e 11 61
e 11 63
e 11 73
e 11 74
e 12 16
e 12 17
e 12 19
e 12 48
e 12 49
e 12 54
e 12 64
e 12 66
e 12 67
e 12 72
e 13 15
e 13 20
e 13 21
e 13 22
e 13 24
e 13 47
e 13 71
e 14 25
e 14 29
e 14 30
e 14 33
e 14 34
e 14 35
e 14 41
e 14 43
e 14 50
e 14 56
e 14 61
e 15 20
e 15 21
e 15 24
e 15 47
e 16 17
e 16 19
e 16 23
e 16 26
e 16 27
e 16 72
e 17 19
e 17 23
e 17 26
e 17 27
e 17 48
e 17 49
e 17 52
e 17 72
e 18 36
e 18 37
e 18 60
e 19 23
e 19 26
e 19 48
e 19 49
e 19 54
e 19 64
e 19 72
e 19 79
e 20 22
e 20 28
e 20 31
e 20 32
e 20 40
e 20 42
e 20 45
e 21 22
e 21 24
e 21 36
e 21 47
e 21 71
e 22 24
e 22 32
e 22 40
e 22 71
e 22 80
e 23 26
e 23 27
e 23 38
e 23 52
e 23 69
e 24 36
e 24 47
e 24 71
e 24 80
e 25 29
e 25 33
e 25 34
e 25 35
e 25 41
e 25 43
e 25 44
e 25 53
e 25 75
e 26 27
e 26 52
e 26 69
e 26 72
e 27 38
e 27 52
e 27 65
e 27 69
e 28 31
e 28 32
e 28 40
e 28 42
e 28 45
e 28 57
e 28 70
e 29 33
e 29 35
e 29 41
e 29 43
e 29 44
e 29 76
e 29 77
e 30 34
e 30 50
e 30 55
e 30 56
e 30 61
e 30 73
e 30 74
e 31 32
e 31 40
e 31 42
e 31 45
e 31 57
e 31 70
e 32 40
e 32 42
e 32 45
e 33 34
e 33 35
e 33 41
e 33 43
e 33 44
e 33 53
e 34 43
e 34 50
e 34 52
e 34 53
e 34 69
e 35 41
e 35 43
e 35 44
e 35 56
e 35 61
e 36 37
e 36 47
e 36 60
e 37 60
e 38 65
e 38 70
e 39 46
e 39 51
e 39 55
e 39 58
e 39 59
e 39 62
e 39 63
e 39 68
e 40 42
e 40 45
e 41 43
e 41 44
e 41 76
e 41 77
e 42 45
e 42 57
e 43 44
e 43 53
e 44 76
e 44 77
e 46 51
e 46 58
e 46 59
e 46 62
e 46 63
e 46 68
e 47 60
e 47 71
e 48 49
e 48 54
e 48 64
e 48 66
e 48 67
e 49 54
e 49 64
e 49 66
e 49 67
e 50 56
e 50 61
e 50 73
e 50 74
e 51 55
e 51 58
e 51 59
e 51 62
e 51 63
e 52 53
e 52 69
e 52 75
e 53 69
e 53 75
e 53 78
e 54 64
e 54 66
e 54 67
e 55 56
e 55 61
e 55 63
e 56 61
e 57 59
e 57 68
e 57 73
e 57 74
e 58 59
e 58 62
e 58 63
e 59 62
e 59 68
e 62 63
e 62 68
e 64 66
e 64 67
e 65 70
e 66 67
e 68 73
e 71 80
e 73 74
e 75 78
e 75 79
e 76 77
e 78 79
